c SSAT file for PBN ISCAS/c499_distill_ISCAS/c499_miter written by probABC
p cnf 804 2169
e 1 0
e 2 0
e 3 0
e 4 0
e 5 0
e 6 0
e 7 0
e 8 0
e 9 0
e 10 0
e 11 0
e 12 0
e 13 0
e 14 0
e 15 0
e 16 0
e 17 0
e 18 0
e 19 0
e 20 0
e 21 0
e 22 0
e 23 0
e 24 0
e 25 0
e 26 0
e 27 0
e 28 0
e 29 0
e 30 0
e 31 0
e 32 0
e 33 0
e 34 0
e 35 0
e 36 0
e 37 0
e 38 0
e 39 0
e 40 0
e 41 0
r 0.125000 42 0
r 0.125000 43 0
r 0.125000 44 0
r 0.125000 45 0
r 0.125000 46 0
r 0.125000 47 0
r 0.125000 48 0
r 0.125000 49 0
r 0.125000 50 0
r 0.125000 51 0
r 0.125000 52 0
r 0.125000 53 0
r 0.125000 54 0
r 0.125000 55 0
r 0.125000 56 0
r 0.125000 57 0
r 0.125000 58 0
r 0.125000 59 0
r 0.125000 60 0
r 0.125000 61 0
r 0.125000 62 0
r 0.125000 63 0
r 0.125000 64 0
r 0.125000 65 0
r 0.125000 66 0
r 0.125000 67 0
r 0.125000 68 0
r 0.125000 69 0
r 0.125000 70 0
r 0.125000 71 0
r 0.125000 72 0
r 0.125000 73 0
r 0.125000 74 0
r 0.125000 75 0
r 0.125000 76 0
r 0.125000 77 0
r 0.125000 78 0
r 0.125000 79 0
r 0.125000 80 0
r 0.125000 81 0
e 83 0
e 84 0
e 85 0
e 86 0
e 87 0
e 88 0
e 89 0
e 90 0
e 91 0
e 92 0
e 93 0
e 94 0
e 95 0
e 96 0
e 97 0
e 98 0
e 99 0
e 100 0
e 101 0
e 102 0
e 103 0
e 104 0
e 105 0
e 106 0
e 107 0
e 108 0
e 109 0
e 110 0
e 111 0
e 112 0
e 113 0
e 114 0
e 115 0
e 116 0
e 117 0
e 118 0
e 119 0
e 120 0
e 121 0
e 122 0
e 123 0
e 124 0
e 125 0
e 126 0
e 127 0
e 128 0
e 129 0
e 130 0
e 131 0
e 132 0
e 133 0
e 134 0
e 135 0
e 136 0
e 137 0
e 138 0
e 139 0
e 140 0
e 141 0
e 142 0
e 143 0
e 144 0
e 145 0
e 146 0
e 147 0
e 148 0
e 149 0
e 150 0
e 151 0
e 152 0
e 153 0
e 154 0
e 155 0
e 156 0
e 157 0
e 158 0
e 159 0
e 160 0
e 161 0
e 162 0
e 163 0
e 164 0
e 165 0
e 166 0
e 167 0
e 168 0
e 169 0
e 170 0
e 171 0
e 172 0
e 173 0
e 174 0
e 175 0
e 176 0
e 177 0
e 178 0
e 179 0
e 180 0
e 181 0
e 182 0
e 183 0
e 184 0
e 185 0
e 186 0
e 187 0
e 188 0
e 189 0
e 190 0
e 191 0
e 192 0
e 193 0
e 194 0
e 195 0
e 196 0
e 197 0
e 198 0
e 199 0
e 200 0
e 201 0
e 202 0
e 203 0
e 204 0
e 205 0
e 206 0
e 207 0
e 208 0
e 209 0
e 210 0
e 211 0
e 212 0
e 213 0
e 214 0
e 215 0
e 216 0
e 217 0
e 218 0
e 219 0
e 220 0
e 221 0
e 222 0
e 223 0
e 224 0
e 225 0
e 226 0
e 227 0
e 228 0
e 229 0
e 230 0
e 231 0
e 232 0
e 233 0
e 234 0
e 235 0
e 236 0
e 237 0
e 238 0
e 239 0
e 240 0
e 241 0
e 242 0
e 243 0
e 244 0
e 245 0
e 246 0
e 247 0
e 248 0
e 249 0
e 250 0
e 251 0
e 252 0
e 253 0
e 254 0
e 255 0
e 256 0
e 257 0
e 258 0
e 259 0
e 260 0
e 261 0
e 262 0
e 263 0
e 264 0
e 265 0
e 266 0
e 267 0
e 268 0
e 269 0
e 270 0
e 271 0
e 272 0
e 273 0
e 274 0
e 275 0
e 276 0
e 277 0
e 278 0
e 279 0
e 280 0
e 281 0
e 282 0
e 283 0
e 284 0
e 285 0
e 286 0
e 287 0
e 288 0
e 289 0
e 290 0
e 291 0
e 292 0
e 293 0
e 294 0
e 295 0
e 296 0
e 297 0
e 298 0
e 299 0
e 300 0
e 301 0
e 302 0
e 303 0
e 304 0
e 305 0
e 306 0
e 307 0
e 308 0
e 309 0
e 310 0
e 311 0
e 312 0
e 313 0
e 314 0
e 315 0
e 316 0
e 317 0
e 318 0
e 319 0
e 320 0
e 321 0
e 322 0
e 323 0
e 324 0
e 325 0
e 326 0
e 327 0
e 328 0
e 329 0
e 330 0
e 331 0
e 332 0
e 333 0
e 334 0
e 335 0
e 336 0
e 337 0
e 338 0
e 339 0
e 340 0
e 341 0
e 342 0
e 343 0
e 344 0
e 345 0
e 346 0
e 347 0
e 348 0
e 349 0
e 350 0
e 351 0
e 352 0
e 353 0
e 354 0
e 355 0
e 356 0
e 357 0
e 358 0
e 359 0
e 360 0
e 361 0
e 362 0
e 363 0
e 364 0
e 365 0
e 366 0
e 367 0
e 368 0
e 369 0
e 370 0
e 371 0
e 372 0
e 373 0
e 374 0
e 375 0
e 376 0
e 377 0
e 378 0
e 379 0
e 380 0
e 381 0
e 382 0
e 383 0
e 384 0
e 385 0
e 386 0
e 387 0
e 388 0
e 389 0
e 390 0
e 391 0
e 392 0
e 393 0
e 394 0
e 395 0
e 396 0
e 397 0
e 398 0
e 399 0
e 400 0
e 401 0
e 402 0
e 403 0
e 404 0
e 405 0
e 406 0
e 407 0
e 408 0
e 409 0
e 410 0
e 411 0
e 412 0
e 413 0
e 414 0
e 415 0
e 416 0
e 417 0
e 418 0
e 419 0
e 420 0
e 421 0
e 422 0
e 423 0
e 424 0
e 425 0
e 426 0
e 427 0
e 428 0
e 429 0
e 430 0
e 431 0
e 432 0
e 433 0
e 434 0
e 435 0
e 436 0
e 437 0
e 438 0
e 439 0
e 440 0
e 441 0
e 442 0
e 443 0
e 444 0
e 445 0
e 446 0
e 447 0
e 448 0
e 449 0
e 450 0
e 451 0
e 452 0
e 453 0
e 454 0
e 455 0
e 456 0
e 457 0
e 458 0
e 459 0
e 460 0
e 461 0
e 462 0
e 463 0
e 464 0
e 465 0
e 466 0
e 467 0
e 468 0
e 469 0
e 470 0
e 471 0
e 472 0
e 473 0
e 474 0
e 475 0
e 476 0
e 477 0
e 478 0
e 479 0
e 480 0
e 481 0
e 482 0
e 483 0
e 484 0
e 485 0
e 486 0
e 487 0
e 488 0
e 489 0
e 490 0
e 491 0
e 492 0
e 493 0
e 494 0
e 495 0
e 496 0
e 497 0
e 498 0
e 499 0
e 500 0
e 501 0
e 502 0
e 503 0
e 504 0
e 505 0
e 506 0
e 507 0
e 508 0
e 509 0
e 510 0
e 511 0
e 512 0
e 513 0
e 514 0
e 515 0
e 516 0
e 517 0
e 518 0
e 519 0
e 520 0
e 521 0
e 522 0
e 523 0
e 524 0
e 525 0
e 526 0
e 527 0
e 528 0
e 529 0
e 530 0
e 531 0
e 532 0
e 533 0
e 534 0
e 535 0
e 536 0
e 537 0
e 538 0
e 539 0
e 540 0
e 541 0
e 542 0
e 543 0
e 544 0
e 545 0
e 546 0
e 547 0
e 548 0
e 549 0
e 550 0
e 551 0
e 552 0
e 553 0
e 554 0
e 555 0
e 556 0
e 557 0
e 558 0
e 559 0
e 560 0
e 561 0
e 562 0
e 563 0
e 564 0
e 565 0
e 566 0
e 567 0
e 568 0
e 569 0
e 570 0
e 571 0
e 572 0
e 573 0
e 574 0
e 575 0
e 576 0
e 577 0
e 578 0
e 579 0
e 580 0
e 581 0
e 582 0
e 583 0
e 584 0
e 585 0
e 586 0
e 587 0
e 588 0
e 589 0
e 590 0
e 591 0
e 592 0
e 593 0
e 594 0
e 595 0
e 596 0
e 597 0
e 598 0
e 599 0
e 600 0
e 601 0
e 602 0
e 603 0
e 604 0
e 605 0
e 606 0
e 607 0
e 608 0
e 609 0
e 610 0
e 611 0
e 612 0
e 613 0
e 614 0
e 615 0
e 616 0
e 617 0
e 618 0
e 619 0
e 620 0
e 621 0
e 622 0
e 623 0
e 624 0
e 625 0
e 626 0
e 627 0
e 628 0
e 629 0
e 630 0
e 631 0
e 632 0
e 633 0
e 634 0
e 635 0
e 636 0
e 637 0
e 638 0
e 639 0
e 640 0
e 641 0
e 642 0
e 643 0
e 644 0
e 645 0
e 646 0
e 647 0
e 648 0
e 649 0
e 650 0
e 651 0
e 652 0
e 653 0
e 654 0
e 655 0
e 656 0
e 657 0
e 658 0
e 659 0
e 660 0
e 661 0
e 662 0
e 663 0
e 664 0
e 665 0
e 666 0
e 667 0
e 668 0
e 669 0
e 670 0
e 671 0
e 672 0
e 673 0
e 674 0
e 675 0
e 676 0
e 677 0
e 678 0
e 679 0
e 680 0
e 681 0
e 682 0
e 683 0
e 684 0
e 685 0
e 686 0
e 687 0
e 688 0
e 689 0
e 690 0
e 691 0
e 692 0
e 693 0
e 694 0
e 695 0
e 696 0
e 697 0
e 698 0
e 699 0
e 700 0
e 701 0
e 702 0
e 703 0
e 704 0
e 705 0
e 706 0
e 707 0
e 708 0
e 709 0
e 710 0
e 711 0
e 712 0
e 713 0
e 714 0
e 715 0
e 716 0
e 717 0
e 718 0
e 719 0
e 720 0
e 721 0
e 722 0
e 723 0
e 724 0
e 725 0
e 726 0
e 727 0
e 728 0
e 729 0
e 730 0
e 731 0
e 732 0
e 733 0
e 734 0
e 735 0
e 736 0
e 737 0
e 738 0
e 739 0
e 740 0
e 741 0
e 742 0
e 743 0
e 744 0
e 745 0
e 746 0
e 747 0
e 748 0
e 749 0
e 750 0
e 751 0
e 752 0
e 753 0
e 754 0
e 755 0
e 756 0
e 757 0
e 758 0
e 759 0
e 760 0
e 761 0
e 762 0
e 763 0
e 764 0
e 765 0
e 766 0
e 767 0
e 768 0
e 769 0
e 770 0
e 771 0
e 772 0
e 773 0
e 774 0
e 775 0
e 776 0
e 777 0
e 778 0
e 779 0
e 780 0
e 781 0
e 782 0
e 783 0
e 784 0
e 785 0
e 786 0
e 787 0
e 788 0
e 789 0
e 790 0
e 791 0
e 792 0
e 793 0
e 794 0
e 795 0
e 796 0
e 797 0
e 798 0
e 799 0
e 800 0
e 801 0
e 802 0
e 803 0
e 804 0
e 82 0
83 9 10 0
-83 -9 0
-83 -10 0
84 -9 -10 0
-84 9 0
-84 10 0
85 83 84 0
-85 -83 0
-85 -84 0
86 11 12 0
-86 -11 0
-86 -12 0
87 -11 -12 0
-87 11 0
-87 12 0
88 86 87 0
-88 -86 0
-88 -87 0
89 -85 88 0
-89 85 0
-89 -88 0
90 85 -88 0
-90 -85 0
-90 88 0
91 89 90 0
-91 -89 0
-91 -90 0
92 -19 23 0
-92 19 0
-92 -23 0
93 19 -23 0
-93 -19 0
-93 23 0
94 92 93 0
-94 -92 0
-94 -93 0
95 -91 94 0
-95 91 0
-95 -94 0
96 91 -94 0
-96 -91 0
-96 94 0
97 95 96 0
-97 -95 0
-97 -96 0
98 -39 -41 0
-98 39 0
-98 41 0
99 1 2 0
-99 -1 0
-99 -2 0
100 -1 -2 0
-100 1 0
-100 2 0
101 99 100 0
-101 -99 0
-101 -100 0
102 -3 4 0
-102 3 0
-102 -4 0
103 3 -4 0
-103 -3 0
-103 4 0
104 102 103 0
-104 -102 0
-104 -103 0
105 -101 -104 0
-105 101 0
-105 104 0
106 101 104 0
-106 -101 0
-106 -104 0
107 105 106 0
-107 -105 0
-107 -106 0
108 -98 -107 0
-108 98 0
-108 107 0
109 98 107 0
-109 -98 0
-109 -107 0
110 108 109 0
-110 -108 0
-110 -109 0
111 27 31 0
-111 -27 0
-111 -31 0
112 -27 -31 0
-112 27 0
-112 31 0
113 111 112 0
-113 -111 0
-113 -112 0
114 -110 113 0
-114 110 0
-114 -113 0
115 110 -113 0
-115 -110 0
-115 113 0
116 114 115 0
-116 -114 0
-116 -115 0
117 -97 -116 0
-117 97 0
-117 116 0
118 97 116 0
-118 -97 0
-118 -116 0
119 117 118 0
-119 -117 0
-119 -118 0
120 23 -24 0
-120 -23 0
-120 24 0
121 -23 24 0
-121 23 0
-121 -24 0
122 120 121 0
-122 -120 0
-122 -121 0
123 21 22 0
-123 -21 0
-123 -22 0
124 -21 -22 0
-124 21 0
-124 22 0
125 123 124 0
-125 -123 0
-125 -124 0
126 -122 -125 0
-126 122 0
-126 125 0
127 122 125 0
-127 -122 0
-127 -125 0
128 126 127 0
-128 -126 0
-128 -127 0
129 -33 -41 0
-129 33 0
-129 41 0
130 -9 13 0
-130 9 0
-130 -13 0
131 9 -13 0
-131 -9 0
-131 13 0
132 130 131 0
-132 -130 0
-132 -131 0
133 1 5 0
-133 -1 0
-133 -5 0
134 -1 -5 0
-134 1 0
-134 5 0
135 133 134 0
-135 -133 0
-135 -134 0
136 -132 -135 0
-136 132 0
-136 135 0
137 132 135 0
-137 -132 0
-137 -135 0
138 136 137 0
-138 -136 0
-138 -137 0
139 19 -20 0
-139 -19 0
-139 20 0
140 -19 20 0
-140 19 0
-140 -20 0
141 139 140 0
-141 -139 0
-141 -140 0
142 17 18 0
-142 -17 0
-142 -18 0
143 -17 -18 0
-143 17 0
-143 18 0
144 142 143 0
-144 -142 0
-144 -143 0
145 -141 -144 0
-145 141 0
-145 144 0
146 141 144 0
-146 -141 0
-146 -144 0
147 145 146 0
-147 -145 0
-147 -146 0
148 -138 -147 0
-148 138 0
-148 147 0
149 138 147 0
-149 -138 0
-149 -147 0
150 148 149 0
-150 -148 0
-150 -149 0
151 -129 150 0
-151 129 0
-151 -150 0
152 129 -150 0
-152 -129 0
-152 150 0
153 151 152 0
-153 -151 0
-153 -152 0
154 -128 -153 0
-154 128 0
-154 153 0
155 128 153 0
-155 -128 0
-155 -153 0
156 154 155 0
-156 -154 0
-156 -155 0
157 2 6 0
-157 -2 0
-157 -6 0
158 -2 -6 0
-158 2 0
-158 6 0
159 157 158 0
-159 -157 0
-159 -158 0
160 -10 14 0
-160 10 0
-160 -14 0
161 10 -14 0
-161 -10 0
-161 14 0
162 160 161 0
-162 -160 0
-162 -161 0
163 -159 -162 0
-163 159 0
-163 162 0
164 159 162 0
-164 -159 0
-164 -162 0
165 163 164 0
-165 -163 0
-165 -164 0
166 -34 -41 0
-166 34 0
-166 41 0
167 29 30 0
-167 -29 0
-167 -30 0
168 -29 -30 0
-168 29 0
-168 30 0
169 167 168 0
-169 -167 0
-169 -168 0
170 -31 32 0
-170 31 0
-170 -32 0
171 31 -32 0
-171 -31 0
-171 32 0
172 170 171 0
-172 -170 0
-172 -171 0
173 -169 -172 0
-173 169 0
-173 172 0
174 169 172 0
-174 -169 0
-174 -172 0
175 173 174 0
-175 -173 0
-175 -174 0
176 25 26 0
-176 -25 0
-176 -26 0
177 -25 -26 0
-177 25 0
-177 26 0
178 176 177 0
-178 -176 0
-178 -177 0
179 -27 28 0
-179 27 0
-179 -28 0
180 27 -28 0
-180 -27 0
-180 28 0
181 179 180 0
-181 -179 0
-181 -180 0
182 -178 -181 0
-182 178 0
-182 181 0
183 178 181 0
-183 -178 0
-183 -181 0
184 182 183 0
-184 -182 0
-184 -183 0
185 -175 -184 0
-185 175 0
-185 184 0
186 175 184 0
-186 -175 0
-186 -184 0
187 185 186 0
-187 -185 0
-187 -186 0
188 -166 187 0
-188 166 0
-188 -187 0
189 166 -187 0
-189 -166 0
-189 187 0
190 188 189 0
-190 -188 0
-190 -189 0
191 -165 -190 0
-191 165 0
-191 190 0
192 165 190 0
-192 -165 0
-192 -190 0
193 191 192 0
-193 -191 0
-193 -192 0
194 156 -193 0
-194 -156 0
-194 193 0
195 -36 -41 0
-195 36 0
-195 41 0
196 4 8 0
-196 -4 0
-196 -8 0
197 -4 -8 0
-197 4 0
-197 8 0
198 196 197 0
-198 -196 0
-198 -197 0
199 -12 16 0
-199 12 0
-199 -16 0
200 12 -16 0
-200 -12 0
-200 16 0
201 199 200 0
-201 -199 0
-201 -200 0
202 -198 -201 0
-202 198 0
-202 201 0
203 198 201 0
-203 -198 0
-203 -201 0
204 202 203 0
-204 -202 0
-204 -203 0
205 -128 -204 0
-205 128 0
-205 204 0
206 128 204 0
-206 -128 0
-206 -204 0
207 205 206 0
-207 -205 0
-207 -206 0
208 -195 207 0
-208 195 0
-208 -207 0
209 195 -207 0
-209 -195 0
-209 207 0
210 208 209 0
-210 -208 0
-210 -209 0
211 -175 -210 0
-211 175 0
-211 210 0
212 175 210 0
-212 -175 0
-212 -210 0
213 211 212 0
-213 -211 0
-213 -212 0
214 -35 -41 0
-214 35 0
-214 41 0
215 3 7 0
-215 -3 0
-215 -7 0
216 -3 -7 0
-216 3 0
-216 7 0
217 215 216 0
-217 -215 0
-217 -216 0
218 -11 15 0
-218 11 0
-218 -15 0
219 11 -15 0
-219 -11 0
-219 15 0
220 218 219 0
-220 -218 0
-220 -219 0
221 -217 -220 0
-221 217 0
-221 220 0
222 217 220 0
-222 -217 0
-222 -220 0
223 221 222 0
-223 -221 0
-223 -222 0
224 -147 -223 0
-224 147 0
-224 223 0
225 147 223 0
-225 -147 0
-225 -223 0
226 224 225 0
-226 -224 0
-226 -225 0
227 -214 226 0
-227 214 0
-227 -226 0
228 214 -226 0
-228 -214 0
-228 226 0
229 227 228 0
-229 -227 0
-229 -228 0
230 -184 -229 0
-230 184 0
-230 229 0
231 184 229 0
-231 -184 0
-231 -229 0
232 230 231 0
-232 -230 0
-232 -231 0
233 -213 232 0
-233 213 0
-233 -232 0
234 13 14 0
-234 -13 0
-234 -14 0
235 -13 -14 0
-235 13 0
-235 14 0
236 234 235 0
-236 -234 0
-236 -235 0
237 -15 16 0
-237 15 0
-237 -16 0
238 15 -16 0
-238 -15 0
-238 16 0
239 237 238 0
-239 -237 0
-239 -238 0
240 -236 -239 0
-240 236 0
-240 239 0
241 236 239 0
-241 -236 0
-241 -239 0
242 240 241 0
-242 -240 0
-242 -241 0
243 -40 -41 0
-243 40 0
-243 41 0
244 20 24 0
-244 -20 0
-244 -24 0
245 -20 -24 0
-245 20 0
-245 24 0
246 244 245 0
-246 -244 0
-246 -245 0
247 -28 32 0
-247 28 0
-247 -32 0
248 28 -32 0
-248 -28 0
-248 32 0
249 247 248 0
-249 -247 0
-249 -248 0
250 -246 -249 0
-250 246 0
-250 249 0
251 246 249 0
-251 -246 0
-251 -249 0
252 250 251 0
-252 -250 0
-252 -251 0
253 5 -6 0
-253 -5 0
-253 6 0
254 -5 6 0
-254 5 0
-254 -6 0
255 253 254 0
-255 -253 0
-255 -254 0
256 7 -8 0
-256 -7 0
-256 8 0
257 -7 8 0
-257 7 0
-257 -8 0
258 256 257 0
-258 -256 0
-258 -257 0
259 -255 258 0
-259 255 0
-259 -258 0
260 255 -258 0
-260 -255 0
-260 258 0
261 259 260 0
-261 -259 0
-261 -260 0
262 -252 -261 0
-262 252 0
-262 261 0
263 252 261 0
-263 -252 0
-263 -261 0
264 262 263 0
-264 -262 0
-264 -263 0
265 -243 264 0
-265 243 0
-265 -264 0
266 243 -264 0
-266 -243 0
-266 264 0
267 265 266 0
-267 -265 0
-267 -266 0
268 -242 -267 0
-268 242 0
-268 267 0
269 242 267 0
-269 -242 0
-269 -267 0
270 268 269 0
-270 -268 0
-270 -269 0
271 119 270 0
-271 -119 0
-271 -270 0
272 -119 -270 0
-272 119 0
-272 270 0
273 271 272 0
-273 -271 0
-273 -272 0
274 25 29 0
-274 -25 0
-274 -29 0
275 -25 -29 0
-275 25 0
-275 29 0
276 274 275 0
-276 -274 0
-276 -275 0
277 17 -21 0
-277 -17 0
-277 21 0
278 -17 21 0
-278 17 0
-278 -21 0
279 277 278 0
-279 -277 0
-279 -278 0
280 261 -279 0
-280 -261 0
-280 279 0
281 -261 279 0
-281 261 0
-281 -279 0
282 280 281 0
-282 -280 0
-282 -281 0
283 -276 -282 0
-283 276 0
-283 282 0
284 276 282 0
-284 -276 0
-284 -282 0
285 283 284 0
-285 -283 0
-285 -284 0
286 -37 -41 0
-286 37 0
-286 41 0
287 107 -286 0
-287 -107 0
-287 286 0
288 -107 286 0
-288 107 0
-288 -286 0
289 287 288 0
-289 -287 0
-289 -288 0
290 -285 -289 0
-290 285 0
-290 289 0
291 285 289 0
-291 -285 0
-291 -289 0
292 290 291 0
-292 -290 0
-292 -291 0
293 18 -22 0
-293 -18 0
-293 22 0
294 -18 22 0
-294 18 0
-294 -22 0
295 293 294 0
-295 -293 0
-295 -294 0
296 -91 295 0
-296 91 0
-296 -295 0
297 91 -295 0
-297 -91 0
-297 295 0
298 296 297 0
-298 -296 0
-298 -297 0
299 -38 -41 0
-299 38 0
-299 41 0
300 -242 -299 0
-300 242 0
-300 299 0
301 242 299 0
-301 -242 0
-301 -299 0
302 300 301 0
-302 -300 0
-302 -301 0
303 26 30 0
-303 -26 0
-303 -30 0
304 -26 -30 0
-304 26 0
-304 30 0
305 303 304 0
-305 -303 0
-305 -304 0
306 -302 305 0
-306 302 0
-306 -305 0
307 302 -305 0
-307 -302 0
-307 305 0
308 306 307 0
-308 -306 0
-308 -307 0
309 -298 -308 0
-309 298 0
-309 308 0
310 298 308 0
-310 -298 0
-310 -308 0
311 309 310 0
-311 -309 0
-311 -310 0
312 -292 -311 0
-312 292 0
-312 311 0
313 273 -312 0
-313 -273 0
-313 312 0
314 -292 311 0
-314 292 0
-314 -311 0
315 292 -311 0
-315 -292 0
-315 311 0
316 314 315 0
-316 -314 0
-316 -315 0
317 -119 270 0
-317 119 0
-317 -270 0
318 316 -317 0
-318 -316 0
-318 317 0
319 313 318 0
-319 -313 0
-319 -318 0
320 -233 319 0
-320 233 0
-320 -319 0
321 -194 -320 0
-321 194 0
-321 320 0
322 119 -321 0
-322 -119 0
-322 321 0
323 -53 89 0
-323 53 0
-323 -89 0
324 53 91 0
-324 -53 0
-324 -91 0
325 323 324 0
-325 -323 0
-325 -324 0
326 -113 325 0
-326 113 0
-326 -325 0
327 113 -325 0
-327 -113 0
-327 325 0
328 326 327 0
-328 -326 0
-328 -327 0
329 55 93 0
-329 -55 0
-329 -93 0
330 -92 329 0
-330 92 0
-330 -329 0
331 92 -329 0
-331 -92 0
-331 329 0
332 330 331 0
-332 -330 0
-332 -331 0
333 -110 332 0
-333 110 0
-333 -332 0
334 110 -332 0
-334 -110 0
-334 332 0
335 333 334 0
-335 -333 0
-335 -334 0
336 -328 -335 0
-336 328 0
-336 335 0
337 328 335 0
-337 -328 0
-337 -335 0
338 336 337 0
-338 -336 0
-338 -337 0
339 47 -278 0
-339 -47 0
-339 278 0
340 47 277 0
-340 -47 0
-340 -277 0
341 278 340 0
-341 -278 0
-341 -340 0
342 339 341 0
-342 -339 0
-342 -341 0
343 276 342 0
-343 -276 0
-343 -342 0
344 48 343 0
-344 -48 0
-344 -343 0
345 49 253 0
-345 -49 0
-345 -253 0
346 254 -345 0
-346 -254 0
-346 345 0
347 -49 -254 0
-347 49 0
-347 254 0
348 346 347 0
-348 -346 0
-348 -347 0
349 50 257 0
-349 -50 0
-349 -257 0
350 -256 349 0
-350 256 0
-350 -349 0
351 256 -349 0
-351 -256 0
-351 349 0
352 350 351 0
-352 -350 0
-352 -351 0
353 -348 -352 0
-353 348 0
-353 352 0
354 348 352 0
-354 -348 0
-354 -352 0
355 353 354 0
-355 -353 0
-355 -354 0
356 286 355 0
-356 -286 0
-356 -355 0
357 -286 -355 0
-357 286 0
-357 355 0
358 356 357 0
-358 -356 0
-358 -357 0
359 -276 -342 0
-359 276 0
-359 342 0
360 107 -359 0
-360 -107 0
-360 359 0
361 -107 359 0
-361 107 0
-361 -359 0
362 360 361 0
-362 -360 0
-362 -361 0
363 -358 362 0
-363 358 0
-363 -362 0
364 358 -362 0
-364 -358 0
-364 362 0
365 363 364 0
-365 -363 0
-365 -364 0
366 -344 -365 0
-366 344 0
-366 365 0
367 344 365 0
-367 -344 0
-367 -365 0
368 366 367 0
-368 -366 0
-368 -367 0
369 302 -325 0
-369 -302 0
-369 325 0
370 -302 325 0
-370 302 0
-370 -325 0
371 369 370 0
-371 -369 0
-371 -370 0
372 51 -294 0
-372 -51 0
-372 294 0
373 51 293 0
-373 -51 0
-373 -293 0
374 294 373 0
-374 -294 0
-374 -373 0
375 372 374 0
-375 -372 0
-375 -374 0
376 -52 -305 0
-376 52 0
-376 305 0
377 375 376 0
-377 -375 0
-377 -376 0
378 52 305 0
-378 -52 0
-378 -305 0
379 377 -378 0
-379 -377 0
-379 378 0
380 -377 378 0
-380 377 0
-380 -378 0
381 379 380 0
-381 -379 0
-381 -380 0
382 371 381 0
-382 -371 0
-382 -381 0
383 -371 -381 0
-383 371 0
-383 381 0
384 54 -383 0
-384 -54 0
-384 383 0
385 -54 383 0
-385 54 0
-385 -383 0
386 382 384 0
-386 -382 0
-386 -384 0
387 385 -386 0
-387 -385 0
-387 386 0
388 368 387 0
-388 -368 0
-388 -387 0
389 338 -388 0
-389 -338 0
-389 388 0
390 -68 389 0
-390 68 0
-390 -389 0
391 68 -389 0
-391 -68 0
-391 389 0
392 390 391 0
-392 -390 0
-392 -391 0
393 56 243 0
-393 -56 0
-393 -243 0
394 -56 -243 0
-394 56 0
-394 243 0
395 393 394 0
-395 -393 0
-395 -394 0
396 -242 -395 0
-396 242 0
-396 395 0
397 242 395 0
-397 -242 0
-397 -395 0
398 396 397 0
-398 -396 0
-398 -397 0
399 -252 398 0
-399 252 0
-399 -398 0
400 252 -398 0
-400 -252 0
-400 398 0
401 399 400 0
-401 -399 0
-401 -400 0
402 -355 -401 0
-402 355 0
-402 401 0
403 355 401 0
-403 -355 0
-403 -401 0
404 402 403 0
-404 -402 0
-404 -403 0
405 392 -404 0
-405 -392 0
-405 404 0
406 -368 -387 0
-406 368 0
-406 387 0
407 338 -404 0
-407 -338 0
-407 404 0
408 -406 -407 0
-408 406 0
-408 407 0
409 69 408 0
-409 -69 0
-409 -408 0
410 -69 -408 0
-410 69 0
-410 408 0
411 409 410 0
-411 -409 0
-411 -410 0
412 -338 -404 0
-412 338 0
-412 404 0
413 338 404 0
-413 -338 0
-413 -404 0
414 412 413 0
-414 -412 0
-414 -413 0
415 368 -387 0
-415 -368 0
-415 387 0
416 414 -415 0
-416 -414 0
-416 415 0
417 411 416 0
-417 -411 0
-417 -416 0
418 405 -417 0
-418 -405 0
-418 417 0
419 -45 140 0
-419 45 0
-419 -140 0
420 45 -140 0
-420 -45 0
-420 140 0
421 419 420 0
-421 -419 0
-421 -420 0
422 44 139 0
-422 -44 0
-422 -139 0
423 -144 422 0
-423 144 0
-423 -422 0
424 144 -422 0
-424 -144 0
-424 422 0
425 423 424 0
-425 -423 0
-425 -424 0
426 -421 -425 0
-426 421 0
-426 425 0
427 421 425 0
-427 -421 0
-427 -425 0
428 426 427 0
-428 -426 0
-428 -427 0
429 46 121 0
-429 -46 0
-429 -121 0
430 -120 429 0
-430 120 0
-430 -429 0
431 120 -429 0
-431 -120 0
-431 429 0
432 430 431 0
-432 -430 0
-432 -431 0
433 -125 -432 0
-433 125 0
-433 432 0
434 125 432 0
-434 -125 0
-434 -432 0
435 433 434 0
-435 -433 0
-435 -434 0
436 129 435 0
-436 -129 0
-436 -435 0
437 -129 -435 0
-437 129 0
-437 435 0
438 436 437 0
-438 -436 0
-438 -437 0
439 42 -131 0
-439 -42 0
-439 131 0
440 42 130 0
-440 -42 0
-440 -130 0
441 131 440 0
-441 -131 0
-441 -440 0
442 439 441 0
-442 -439 0
-442 -441 0
443 -43 -135 0
-443 43 0
-443 135 0
444 442 443 0
-444 -442 0
-444 -443 0
445 43 135 0
-445 -43 0
-445 -135 0
446 444 -445 0
-446 -444 0
-446 445 0
447 -444 445 0
-447 444 0
-447 -445 0
448 446 447 0
-448 -446 0
-448 -447 0
449 -438 448 0
-449 438 0
-449 -448 0
450 438 -448 0
-450 -438 0
-450 448 0
451 449 450 0
-451 -449 0
-451 -450 0
452 -428 -451 0
-452 428 0
-452 451 0
453 428 451 0
-453 -428 0
-453 -451 0
454 452 453 0
-454 -452 0
-454 -453 0
455 -58 166 0
-455 58 0
-455 -166 0
456 58 -166 0
-456 -58 0
-456 166 0
457 455 456 0
-457 -455 0
-457 -456 0
458 -187 -457 0
-458 187 0
-458 457 0
459 187 457 0
-459 -187 0
-459 -457 0
460 -57 -165 0
-460 57 0
-460 165 0
461 57 165 0
-461 -57 0
-461 -165 0
462 460 461 0
-462 -460 0
-462 -461 0
463 -59 -462 0
-463 59 0
-463 462 0
464 458 459 0
-464 -458 0
-464 -459 0
465 463 -464 0
-465 -463 0
-465 464 0
466 59 462 0
-466 -59 0
-466 -462 0
467 465 -466 0
-467 -465 0
-467 466 0
468 -465 466 0
-468 465 0
-468 -466 0
469 467 468 0
-469 -467 0
-469 -468 0
470 454 -469 0
-470 -454 0
-470 469 0
471 -65 470 0
-471 65 0
-471 -470 0
472 65 -470 0
-472 -65 0
-472 470 0
473 471 472 0
-473 -471 0
-473 -472 0
474 -60 428 0
-474 60 0
-474 -428 0
475 60 -428 0
-475 -60 0
-475 428 0
476 474 475 0
-476 -474 0
-476 -475 0
477 61 214 0
-477 -61 0
-477 -214 0
478 -61 -214 0
-478 61 0
-478 214 0
479 477 478 0
-479 -477 0
-479 -478 0
480 -58 -184 0
-480 58 0
-480 184 0
481 58 184 0
-481 -58 0
-481 -184 0
482 480 481 0
-482 -480 0
-482 -481 0
483 -479 482 0
-483 479 0
-483 -482 0
484 479 -482 0
-484 -479 0
-484 482 0
485 483 484 0
-485 -483 0
-485 -484 0
486 -223 485 0
-486 223 0
-486 -485 0
487 223 -485 0
-487 -223 0
-487 485 0
488 486 487 0
-488 -486 0
-488 -487 0
489 -476 -488 0
-489 476 0
-489 488 0
490 476 488 0
-490 -476 0
-490 -488 0
491 489 490 0
-491 -489 0
-491 -490 0
492 473 491 0
-492 -473 0
-492 -491 0
493 -63 195 0
-493 63 0
-493 -195 0
494 63 -195 0
-494 -63 0
-494 195 0
495 493 494 0
-495 -493 0
-495 -494 0
496 62 -435 0
-496 -62 0
-496 435 0
497 -62 435 0
-497 62 0
-497 -435 0
498 -175 497 0
-498 175 0
-498 -497 0
499 204 498 0
-499 -204 0
-499 -498 0
500 -204 -498 0
-500 204 0
-500 498 0
501 499 500 0
-501 -499 0
-501 -500 0
502 -496 501 0
-502 496 0
-502 -501 0
503 496 -501 0
-503 -496 0
-503 501 0
504 502 503 0
-504 -502 0
-504 -503 0
505 -495 -504 0
-505 495 0
-505 504 0
506 495 504 0
-506 -495 0
-506 -504 0
507 505 506 0
-507 -505 0
-507 -506 0
508 -492 -507 0
-508 492 0
-508 507 0
509 418 -508 0
-509 -418 0
-509 508 0
510 -338 -509 0
-510 338 0
-510 509 0
511 80 -510 0
-511 -80 0
-511 510 0
512 31 -80 0
-512 -31 0
-512 80 0
513 510 -512 0
-513 -510 0
-513 512 0
514 511 513 0
-514 -511 0
-514 -513 0
515 -322 514 0
-515 322 0
-515 -514 0
516 322 -514 0
-516 -322 0
-516 514 0
517 515 516 0
-517 -515 0
-517 -516 0
518 454 469 0
-518 -454 0
-518 -469 0
519 -491 -518 0
-519 491 0
-519 518 0
520 64 507 0
-520 -64 0
-520 -507 0
521 -519 -520 0
-521 519 0
-521 520 0
522 -454 469 0
-522 454 0
-522 -469 0
523 491 -522 0
-523 -491 0
-523 522 0
524 492 523 0
-524 -492 0
-524 -523 0
525 507 524 0
-525 -507 0
-525 -524 0
526 -507 518 0
-526 507 0
-526 -518 0
527 519 520 0
-527 -519 0
-527 -520 0
528 526 -527 0
-528 -526 0
-528 527 0
529 521 528 0
-529 -521 0
-529 -528 0
530 525 -529 0
-530 -525 0
-530 529 0
531 -388 -412 0
-531 388 0
-531 412 0
532 530 -531 0
-532 -530 0
-532 531 0
533 -491 -532 0
-533 491 0
-533 532 0
534 -156 193 0
-534 156 0
-534 -193 0
535 194 534 0
-535 -194 0
-535 -534 0
536 213 232 0
-536 -213 0
-536 -232 0
537 535 -536 0
-537 -535 0
-537 536 0
538 213 -232 0
-538 -213 0
-538 232 0
539 233 538 0
-539 -233 0
-539 -538 0
540 156 193 0
-540 -156 0
-540 -193 0
541 539 -540 0
-541 -539 0
-541 540 0
542 537 541 0
-542 -537 0
-542 -541 0
543 -271 542 0
-543 271 0
-543 -542 0
544 -314 -543 0
-544 314 0
-544 543 0
545 -232 -544 0
-545 232 0
-545 544 0
546 533 545 0
-546 -533 0
-546 -545 0
547 -533 -545 0
-547 533 0
-547 545 0
548 546 547 0
-548 -546 0
-548 -547 0
549 -507 -532 0
-549 507 0
-549 532 0
550 -213 -544 0
-550 213 0
-550 544 0
551 549 550 0
-551 -549 0
-551 -550 0
552 -549 -550 0
-552 549 0
-552 550 0
553 551 552 0
-553 -551 0
-553 -552 0
554 392 404 0
-554 -392 0
-554 -404 0
555 530 -554 0
-555 -530 0
-555 554 0
556 -454 -555 0
-556 454 0
-556 555 0
557 -272 -314 0
-557 272 0
-557 314 0
558 542 -557 0
-558 -542 0
-558 557 0
559 -156 -558 0
-559 156 0
-559 558 0
560 556 559 0
-560 -556 0
-560 -559 0
561 -556 -559 0
-561 556 0
-561 559 0
562 560 561 0
-562 -560 0
-562 -561 0
563 319 -538 0
-563 -319 0
-563 538 0
564 -534 -563 0
-564 534 0
-564 563 0
565 -270 -564 0
-565 270 0
-565 564 0
566 -491 -522 0
-566 491 0
-566 522 0
567 507 -566 0
-567 -507 0
-567 566 0
568 418 -567 0
-568 -418 0
-568 567 0
569 404 -568 0
-569 -404 0
-569 568 0
570 -20 -72 0
-570 20 0
-570 72 0
571 -569 570 0
-571 569 0
-571 -570 0
572 -72 569 0
-572 72 0
-572 -569 0
573 571 572 0
-573 -571 0
-573 -572 0
574 -565 573 0
-574 565 0
-574 -573 0
575 565 -573 0
-575 -565 0
-575 573 0
576 574 575 0
-576 -574 0
-576 -575 0
577 292 -564 0
-577 -292 0
-577 564 0
578 -368 -568 0
-578 368 0
-578 568 0
579 -17 -70 0
-579 17 0
-579 70 0
580 -578 579 0
-580 578 0
-580 -579 0
581 -70 578 0
-581 70 0
-581 -578 0
582 580 581 0
-582 -580 0
-582 -581 0
583 577 582 0
-583 -577 0
-583 -582 0
584 -577 -582 0
-584 577 0
-584 582 0
585 311 -321 0
-585 -311 0
-585 321 0
586 387 -509 0
-586 -387 0
-586 509 0
587 79 -586 0
-587 -79 0
-587 586 0
588 30 -79 0
-588 -30 0
-588 79 0
589 586 -588 0
-589 -586 0
-589 588 0
590 587 589 0
-590 -587 0
-590 -589 0
591 -585 590 0
-591 585 0
-591 -590 0
592 585 -590 0
-592 -585 0
-592 590 0
593 591 592 0
-593 -591 0
-593 -592 0
594 -320 -534 0
-594 320 0
-594 534 0
595 292 -594 0
-595 -292 0
-595 594 0
596 -507 -523 0
-596 507 0
-596 523 0
597 418 -596 0
-597 -418 0
-597 596 0
598 -368 -597 0
-598 368 0
-598 597 0
599 73 -598 0
-599 -73 0
-599 598 0
600 21 -73 0
-600 -21 0
-600 73 0
601 598 -600 0
-601 -598 0
-601 600 0
602 599 601 0
-602 -599 0
-602 -601 0
603 -595 602 0
-603 595 0
-603 -602 0
604 595 -602 0
-604 -595 0
-604 602 0
605 603 604 0
-605 -603 0
-605 -604 0
606 404 -597 0
-606 -404 0
-606 597 0
607 -270 -594 0
-607 270 0
-607 594 0
608 606 607 0
-608 -606 0
-608 -607 0
609 -606 -607 0
-609 606 0
-609 607 0
610 608 609 0
-610 -608 0
-610 -609 0
611 387 -597 0
-611 -387 0
-611 597 0
612 311 -594 0
-612 -311 0
-612 594 0
613 611 -612 0
-613 -611 0
-613 612 0
614 -611 612 0
-614 611 0
-614 -612 0
615 473 -491 0
-615 -473 0
-615 491 0
616 75 615 0
-616 -75 0
-616 -615 0
617 -75 -615 0
-617 75 0
-617 615 0
618 507 616 0
-618 -507 0
-618 -616 0
619 617 -618 0
-619 -617 0
-619 618 0
620 418 -619 0
-620 -418 0
-620 619 0
621 -368 -620 0
-621 368 0
-621 620 0
622 -194 -563 0
-622 194 0
-622 563 0
623 292 -622 0
-623 -292 0
-623 622 0
624 -621 623 0
-624 621 0
-624 -623 0
625 621 -623 0
-625 -621 0
-625 623 0
626 -338 -568 0
-626 338 0
-626 568 0
627 119 -564 0
-627 -119 0
-627 564 0
628 626 627 0
-628 -626 0
-628 -627 0
629 -626 -627 0
-629 626 0
-629 627 0
630 628 629 0
-630 -628 0
-630 -629 0
631 -368 -509 0
-631 368 0
-631 509 0
632 292 -321 0
-632 -292 0
-632 321 0
633 -631 632 0
-633 631 0
-633 -632 0
634 631 -632 0
-634 -631 0
-634 632 0
635 404 -509 0
-635 -404 0
-635 509 0
636 -270 -321 0
-636 270 0
-636 321 0
637 -81 636 0
-637 81 0
-637 -636 0
638 81 -636 0
-638 -81 0
-638 636 0
639 637 638 0
-639 -637 0
-639 -638 0
640 -635 639 0
-640 635 0
-640 -639 0
641 635 -639 0
-641 -635 0
-641 639 0
642 640 641 0
-642 -640 0
-642 -641 0
643 -406 530 0
-643 406 0
-643 -530 0
644 -413 -643 0
-644 413 0
-644 643 0
645 -454 -644 0
-645 454 0
-645 644 0
646 -272 -315 0
-646 272 0
-646 315 0
647 542 -646 0
-647 -542 0
-647 646 0
648 -156 -647 0
-648 156 0
-648 647 0
649 645 648 0
-649 -645 0
-649 -648 0
650 -645 -648 0
-650 645 0
-650 648 0
651 649 650 0
-651 -649 0
-651 -650 0
652 -507 -555 0
-652 507 0
-652 555 0
653 -213 -558 0
-653 213 0
-653 558 0
654 652 653 0
-654 -652 0
-654 -653 0
655 -652 -653 0
-655 652 0
-655 653 0
656 654 655 0
-656 -654 0
-656 -655 0
657 -491 -555 0
-657 491 0
-657 555 0
658 -232 -558 0
-658 232 0
-658 558 0
659 657 658 0
-659 -657 0
-659 -658 0
660 -657 -658 0
-660 657 0
-660 658 0
661 659 660 0
-661 -659 0
-661 -660 0
662 -412 -643 0
-662 412 0
-662 643 0
663 -454 -662 0
-663 454 0
-663 662 0
664 -315 -543 0
-664 315 0
-664 543 0
665 -156 -664 0
-665 156 0
-665 664 0
666 663 665 0
-666 -663 0
-666 -665 0
667 -663 -665 0
-667 663 0
-667 665 0
668 666 667 0
-668 -666 0
-668 -667 0
669 -491 -644 0
-669 491 0
-669 644 0
670 -232 -647 0
-670 232 0
-670 647 0
671 -669 670 0
-671 669 0
-671 -670 0
672 669 -670 0
-672 -669 0
-672 670 0
673 -469 -662 0
-673 469 0
-673 662 0
674 -193 -664 0
-674 193 0
-674 664 0
675 673 674 0
-675 -673 0
-675 -674 0
676 -673 -674 0
-676 673 0
-676 674 0
677 675 676 0
-677 -675 0
-677 -676 0
678 -491 -662 0
-678 491 0
-678 662 0
679 -232 -664 0
-679 232 0
-679 664 0
680 678 679 0
-680 -678 0
-680 -679 0
681 -678 -679 0
-681 678 0
-681 679 0
682 680 681 0
-682 -680 0
-682 -681 0
683 -507 -662 0
-683 507 0
-683 662 0
684 -213 -664 0
-684 213 0
-684 664 0
685 683 684 0
-685 -683 0
-685 -684 0
686 -683 -684 0
-686 683 0
-686 684 0
687 685 686 0
-687 -685 0
-687 -686 0
688 -469 -532 0
-688 469 0
-688 532 0
689 -193 -544 0
-689 193 0
-689 544 0
690 688 -689 0
-690 -688 0
-690 689 0
691 -688 689 0
-691 688 0
-691 -689 0
692 311 -564 0
-692 -311 0
-692 564 0
693 387 -568 0
-693 -387 0
-693 568 0
694 -71 693 0
-694 71 0
-694 -693 0
695 71 -693 0
-695 -71 0
-695 693 0
696 694 695 0
-696 -694 0
-696 -695 0
697 -692 -696 0
-697 692 0
-697 696 0
698 692 696 0
-698 -692 0
-698 -696 0
699 -469 -555 0
-699 469 0
-699 555 0
700 -193 -558 0
-700 193 0
-700 558 0
701 699 -700 0
-701 -699 0
-701 700 0
702 -699 700 0
-702 699 0
-702 -700 0
703 119 -594 0
-703 -119 0
-703 594 0
704 -338 -597 0
-704 338 0
-704 597 0
705 -23 -74 0
-705 23 0
-705 74 0
706 -704 705 0
-706 704 0
-706 -705 0
707 -74 704 0
-707 74 0
-707 -704 0
708 706 707 0
-708 -706 0
-708 -707 0
709 703 -708 0
-709 -703 0
-709 708 0
710 -703 708 0
-710 703 0
-710 -708 0
711 709 710 0
-711 -709 0
-711 -710 0
712 -507 -644 0
-712 507 0
-712 644 0
713 -213 -647 0
-713 213 0
-713 647 0
714 712 713 0
-714 -712 0
-714 -713 0
715 -712 -713 0
-715 712 0
-715 713 0
716 714 715 0
-716 -714 0
-716 -715 0
717 -469 -644 0
-717 469 0
-717 644 0
718 -193 -647 0
-718 193 0
-718 647 0
719 717 718 0
-719 -717 0
-719 -718 0
720 -717 -718 0
-720 717 0
-720 718 0
721 719 720 0
-721 -719 0
-721 -720 0
722 311 -622 0
-722 -311 0
-722 622 0
723 387 -620 0
-723 -387 0
-723 620 0
724 76 -723 0
-724 -76 0
-724 723 0
725 26 -76 0
-725 -26 0
-725 76 0
726 723 -725 0
-726 -723 0
-726 725 0
727 724 726 0
-727 -724 0
-727 -726 0
728 722 -727 0
-728 -722 0
-728 727 0
729 -722 727 0
-729 722 0
-729 -727 0
730 728 729 0
-730 -728 0
-730 -729 0
731 9 66 0
-731 -9 0
-731 -66 0
732 -9 -66 0
-732 9 0
-732 66 0
733 731 732 0
-733 -731 0
-733 -732 0
734 -454 -532 0
-734 454 0
-734 532 0
735 -156 -544 0
-735 156 0
-735 544 0
736 9 -735 0
-736 -9 0
-736 735 0
737 -9 735 0
-737 9 0
-737 -735 0
738 736 737 0
-738 -736 0
-738 -737 0
739 -67 738 0
-739 67 0
-739 -738 0
740 67 -738 0
-740 -67 0
-740 738 0
741 739 740 0
-741 -739 0
-741 -740 0
742 -734 -741 0
-742 734 0
-742 741 0
743 734 741 0
-743 -734 0
-743 -741 0
744 742 743 0
-744 -742 0
-744 -743 0
745 -733 744 0
-745 733 0
-745 -744 0
746 733 -744 0
-746 -733 0
-746 744 0
747 119 -622 0
-747 -119 0
-747 622 0
748 -338 -620 0
-748 338 0
-748 620 0
749 -27 -77 0
-749 27 0
-749 77 0
750 -748 749 0
-750 748 0
-750 -749 0
751 -77 748 0
-751 77 0
-751 -748 0
752 750 751 0
-752 -750 0
-752 -751 0
753 -747 752 0
-753 747 0
-753 -752 0
754 747 -752 0
-754 -747 0
-754 752 0
755 753 754 0
-755 -753 0
-755 -754 0
756 -270 -622 0
-756 270 0
-756 622 0
757 404 -620 0
-757 -404 0
-757 620 0
758 78 -757 0
-758 -78 0
-758 757 0
759 28 -78 0
-759 -28 0
-759 78 0
760 757 -759 0
-760 -757 0
-760 759 0
761 758 760 0
-761 -758 0
-761 -760 0
762 -756 761 0
-762 756 0
-762 -761 0
763 756 -761 0
-763 -756 0
-763 761 0
764 762 763 0
-764 -762 0
-764 -763 0
765 613 614 0
-765 -613 0
-765 -614 0
766 633 634 0
-766 -633 0
-766 -634 0
767 -765 -766 0
-767 765 0
-767 766 0
768 610 624 0
-768 -610 0
-768 -624 0
769 625 630 0
-769 -625 0
-769 -630 0
770 642 690 0
-770 -642 0
-770 -690 0
771 691 701 0
-771 -691 0
-771 -701 0
772 702 -771 0
-772 -702 0
-772 771 0
773 -769 -770 0
-773 769 0
-773 770 0
774 -767 -768 0
-774 767 0
-774 768 0
775 548 553 0
-775 -548 0
-775 -553 0
776 562 583 0
-776 -562 0
-776 -583 0
777 584 656 0
-777 -584 0
-777 -656 0
778 661 671 0
-778 -661 0
-778 -671 0
779 672 697 0
-779 -672 0
-779 -697 0
780 698 -779 0
-780 -698 0
-780 779 0
781 -777 -778 0
-781 777 0
-781 778 0
782 -775 -776 0
-782 775 0
-782 776 0
783 -773 -774 0
-783 773 0
-783 774 0
784 517 -772 0
-784 -517 0
-784 772 0
785 576 593 0
-785 -576 0
-785 -593 0
786 605 651 0
-786 -605 0
-786 -651 0
787 668 677 0
-787 -668 0
-787 -677 0
788 682 687 0
-788 -682 0
-788 -687 0
789 711 716 0
-789 -711 0
-789 -716 0
790 721 745 0
-790 -721 0
-790 -745 0
791 746 -790 0
-791 -746 0
-791 790 0
792 -788 -789 0
-792 788 0
-792 789 0
793 -786 -787 0
-793 786 0
-793 787 0
794 -784 -785 0
-794 784 0
-794 785 0
795 -782 -783 0
-795 782 0
-795 783 0
796 -780 -781 0
-796 780 0
-796 781 0
797 730 755 0
-797 -730 0
-797 -755 0
798 764 -797 0
-798 -764 0
-798 797 0
799 -795 -796 0
-799 795 0
-799 796 0
800 -793 -794 0
-800 793 0
-800 794 0
801 -791 -792 0
-801 791 0
-801 792 0
802 -800 -801 0
-802 800 0
-802 801 0
803 -798 -799 0
-803 798 0
-803 799 0
804 -802 -803 0
-804 802 0
-804 803 0
82 804 0
-82 -804 0
82 0
